objective value:                                10859
t_x_2                                               1 	(obj:34)
t_x_6                                               1 	(obj:39)
t_x_8                                               1 	(obj:29)
t_x_13                                              1 	(obj:2)
t_x_16                                              1 	(obj:0)
t_x_19                                              1 	(obj:37)
t_x_22                                              1 	(obj:48)
t_x_23                                              1 	(obj:28)
t_x_25                                              1 	(obj:25)
t_x_26                                              1 	(obj:47)
t_x_27                                              1 	(obj:24)
t_x_28                                              1 	(obj:30)
t_x_29                                              1 	(obj:35)
t_x_30                                              1 	(obj:2)
t_x_31                                              1 	(obj:54)
t_x_32                                              1 	(obj:34)
t_x_37                                              1 	(obj:1)
t_x_40                                              1 	(obj:32)
t_x_41                                              1 	(obj:60)
t_x_44                                              1 	(obj:3)
t_x_45                                              1 	(obj:31)
t_x_47                                              1 	(obj:4)
t_x_49                                              1 	(obj:30)
t_x_54                                              1 	(obj:22)
t_x_58                                              1 	(obj:19)
t_x_60                                              1 	(obj:1)
t_x_63                                              1 	(obj:32)
t_x_69                                              1 	(obj:23)
t_x_70                                              1 	(obj:18)
t_x_72                                              1 	(obj:28)
t_x_74                                              1 	(obj:17)
t_x_76                                              1 	(obj:25)
t_x_79                                              1 	(obj:35)
t_x_80                                              1 	(obj:14)
t_x_83                                              1 	(obj:8)
t_x_89                                              1 	(obj:4)
t_x_93                                              1 	(obj:24)
t_x_94                                              1 	(obj:0)
t_x_95                                              1 	(obj:6)
t_x_97                                              1 	(obj:11)
t_x_99                                              1 	(obj:13)
t_x_101                                             1 	(obj:12)
t_x_102                                             1 	(obj:22)
t_x_106                                             1 	(obj:32)
t_x_107                                             1 	(obj:12)
t_x_108                                             1 	(obj:9)
t_x_109                                             1 	(obj:2)
t_x_114                                             1 	(obj:9)
t_x_116                                             1 	(obj:19)
t_x_121                                             1 	(obj:37)
t_x_122                                             1 	(obj:14)
t_x_129                                             1 	(obj:21)
t_x_130                                             1 	(obj:27)
t_x_131                                             1 	(obj:10)
t_x_133                                             1 	(obj:2)
t_x_134                                             1 	(obj:1)
t_x_139                                             1 	(obj:11)
t_x_141                                             1 	(obj:20)
t_x_146                                             1 	(obj:83)
t_x_147                                             1 	(obj:14)
t_x_149                                             1 	(obj:24)
t_x_154                                             1 	(obj:3)
t_x_155                                             1 	(obj:10)
t_x_164                                             1 	(obj:13)
t_x_165                                             1 	(obj:1)
t_x_166                                             1 	(obj:39)
t_x_172                                             1 	(obj:57)
t_x_178                                             1 	(obj:40)
t_x_180                                             1 	(obj:11)
t_x_185                                             1 	(obj:42)
t_x_189                                             1 	(obj:3)
t_x_191                                             1 	(obj:25)
t_x_192                                             1 	(obj:16)
t_x_196                                             1 	(obj:6)
t_x_197                                             1 	(obj:13)
t_x_199                                             1 	(obj:11)
t_x_203                                             1 	(obj:3)
t_x_206                                             1 	(obj:40)
t_x_213                                             1 	(obj:9)
t_x_224                                             1 	(obj:35)
t_x_227                                             1 	(obj:13)
t_x_229                                             1 	(obj:51)
t_x_231                                             1 	(obj:22)
t_x_232                                             1 	(obj:34)
t_x_238                                             1 	(obj:9)
t_x_247                                             1 	(obj:8)
t_x_252                                             1 	(obj:38)
t_x_253                                             1 	(obj:15)
t_x_261                                             1 	(obj:9)
t_x_262                                             1 	(obj:11)
t_x_274                                             1 	(obj:31)
t_x_275                                             1 	(obj:48)
t_x_281                                             1 	(obj:5)
t_x_282                                             1 	(obj:13)
t_x_284                                             1 	(obj:43)
t_x_285                                             1 	(obj:33)
t_x_287                                             1 	(obj:38)
t_x_289                                             1 	(obj:9)
t_x_291                                             1 	(obj:40)
t_x_294                                             1 	(obj:13)
t_x_299                                             1 	(obj:41)
t_x_302                                             1 	(obj:21)
t_x_303                                             1 	(obj:51)
t_x_304                                             1 	(obj:16)
t_x_305                                             1 	(obj:9)
t_x_307                                             1 	(obj:45)
t_x_311                                             1 	(obj:14)
t_x_316                                             1 	(obj:23)
t_x_318                                             1 	(obj:3)
t_x_319                                             1 	(obj:22)
t_x_321                                             1 	(obj:39)
t_x_325                                             1 	(obj:2)
t_x_331                                             1 	(obj:2)
t_x_333                                             1 	(obj:20)
t_x_343                                             1 	(obj:2)
t_x_345                                             1 	(obj:12)
t_x_347                                             1 	(obj:39)
t_x_348                                             1 	(obj:32)
t_x_354                                             1 	(obj:8)
t_x_355                                             1 	(obj:21)
t_x_357                                             1 	(obj:13)
t_x_359                                             1 	(obj:6)
t_x_366                                             1 	(obj:27)
t_x_368                                             1 	(obj:5)
t_x_369                                             1 	(obj:1)
t_x_370                                             1 	(obj:16)
t_x_371                                             1 	(obj:38)
t_x_374                                             1 	(obj:3)
t_x_375                                             1 	(obj:12)
t_x_377                                             1 	(obj:14)
t_x_379                                             1 	(obj:15)
t_x_381                                             1 	(obj:36)
t_x_382                                             1 	(obj:24)
t_x_384                                             1 	(obj:2)
t_x_391                                             1 	(obj:13)
t_x_392                                             1 	(obj:4)
t_x_396                                             1 	(obj:28)
t_x_397                                             1 	(obj:24)
t_x_401                                             1 	(obj:2)
t_x_403                                             1 	(obj:3)
t_x_410                                             1 	(obj:55)
t_x_417                                             1 	(obj:21)
t_x_427                                             1 	(obj:0)
t_x_428                                             1 	(obj:8)
t_x_439                                             1 	(obj:1)
t_x_440                                             1 	(obj:28)
t_x_444                                             1 	(obj:15)
t_x_451                                             1 	(obj:28)
t_x_452                                             1 	(obj:27)
t_x_453                                             1 	(obj:20)
t_x_454                                             1 	(obj:34)
t_x_457                                             1 	(obj:5)
t_x_472                                             1 	(obj:43)
t_x_474                                             1 	(obj:11)
t_x_478                                             1 	(obj:49)
t_x_480                                             1 	(obj:2)
t_x_482                                             1 	(obj:6)
t_x_485                                             1 	(obj:3)
t_x_492                                             1 	(obj:22)
t_x_493                                             1 	(obj:1)
t_x_499                                             1 	(obj:49)
t_x_501                                             1 	(obj:2)
t_x_502                                             1 	(obj:44)
t_x_503                                             1 	(obj:12)
t_x_505                                             1 	(obj:2)
t_x_507                                             1 	(obj:29)
t_x_508                                             1 	(obj:22)
t_x_509                                             1 	(obj:32)
t_x_511                                             1 	(obj:21)
t_x_513                                             1 	(obj:18)
t_x_515                                             1 	(obj:17)
t_x_524                                             1 	(obj:5)
t_x_525                                             1 	(obj:26)
t_x_526                                             1 	(obj:9)
t_x_529                                             1 	(obj:25)
t_x_532                                             1 	(obj:0)
t_x_533                                             1 	(obj:0)
t_x_535                                             1 	(obj:11)
t_x_536                                             1 	(obj:11)
t_x_538                                             1 	(obj:5)
t_x_547                                             1 	(obj:32)
t_x_553                                             1 	(obj:50)
t_x_555                                             1 	(obj:12)
t_x_556                                             1 	(obj:7)
t_x_562                                             1 	(obj:43)
t_x_563                                             1 	(obj:4)
t_x_569                                             1 	(obj:21)
t_x_570                                             1 	(obj:9)
t_x_571                                             1 	(obj:6)
t_x_584                                             1 	(obj:49)
t_x_589                                             1 	(obj:10)
t_x_597                                             1 	(obj:11)
t_x_601                                             1 	(obj:55)
t_x_602                                             1 	(obj:48)
t_x_606                                             1 	(obj:26)
t_x_607                                             1 	(obj:24)
t_x_633                                             1 	(obj:20)
t_x_636                                             1 	(obj:20)
t_x_637                                             1 	(obj:57)
t_x_644                                             1 	(obj:0)
t_x_648                                             1 	(obj:4)
t_x_649                                             1 	(obj:13)
t_x_650                                             1 	(obj:2)
t_x_655                                             1 	(obj:17)
t_x_658                                             1 	(obj:23)
t_x_659                                             1 	(obj:24)
t_x_669                                             1 	(obj:3)
t_x_672                                             1 	(obj:15)
t_x_680                                             1 	(obj:8)
t_x_682                                             1 	(obj:5)
t_x_686                                             1 	(obj:37)
t_x_695                                             1 	(obj:7)
t_x_696                                             1 	(obj:11)
t_x_697                                             1 	(obj:1)
t_x_708                                             1 	(obj:2)
t_x_712                                             1 	(obj:20)
t_x_715                                             1 	(obj:6)
t_x_720                                             1 	(obj:17)
t_x_721                                             1 	(obj:38)
t_x_722                                             1 	(obj:14)
t_x_724                                             1 	(obj:0)
t_x_725                                             1 	(obj:2)
t_x_728                                             1 	(obj:24)
t_x_731                                             1 	(obj:1)
t_x_733                                             1 	(obj:68)
t_x_735                                             1 	(obj:36)
t_x_745                                             1 	(obj:6)
t_x_754                                             1 	(obj:51)
t_x_755                                             1 	(obj:11)
t_x_757                                             1 	(obj:3)
t_x_764                                             1 	(obj:0)
t_x_765                                             1 	(obj:5)
t_x_768                                             1 	(obj:22)
t_x_773                                             1 	(obj:38)
t_x_774                                             1 	(obj:28)
t_x_778                                             1 	(obj:11)
t_x_784                                             1 	(obj:21)
t_x_786                                             1 	(obj:10)
t_x_792                                             1 	(obj:0)
t_x_800                                             1 	(obj:24)
t_x_803                                             1 	(obj:14)
t_x_808                                             1 	(obj:33)
t_x_812                                             1 	(obj:8)
t_x_813                                             1 	(obj:23)
t_x_825                                             1 	(obj:10)
t_x_831                                             1 	(obj:34)
t_x_836                                             1 	(obj:26)
t_x_837                                             1 	(obj:14)
t_x_839                                             1 	(obj:41)
t_x_842                                             1 	(obj:22)
t_x_843                                             1 	(obj:8)
t_x_844                                             1 	(obj:24)
t_x_849                                             1 	(obj:13)
t_x_862                                             1 	(obj:26)
t_x_863                                             1 	(obj:4)
t_x_864                                             1 	(obj:26)
t_x_865                                             1 	(obj:14)
t_x_866                                             1 	(obj:22)
t_x_870                                             1 	(obj:41)
t_x_873                                             1 	(obj:28)
t_x_877                                             1 	(obj:47)
t_x_878                                             1 	(obj:7)
t_x_879                                             1 	(obj:27)
t_x_882                                             1 	(obj:20)
t_x_884                                             1 	(obj:17)
t_x_887                                             1 	(obj:17)
t_x_888                                             1 	(obj:4)
t_x_889                                             1 	(obj:0)
t_x_893                                             1 	(obj:14)
t_x_900                                             1 	(obj:1)
t_x_903                                             1 	(obj:15)
t_x_907                                             1 	(obj:13)
t_x_909                                             1 	(obj:35)
t_x_912                                             1 	(obj:42)
t_x_917                                             1 	(obj:14)
t_x_922                                             1 	(obj:34)
t_x_925                                             1 	(obj:48)
t_x_928                                             1 	(obj:2)
t_x_931                                             1 	(obj:1)
t_x_935                                             1 	(obj:16)
t_x_938                                             1 	(obj:25)
t_x_947                                             1 	(obj:39)
t_x_948                                             1 	(obj:15)
t_x_952                                             1 	(obj:2)
t_x_956                                             1 	(obj:17)
t_x_958                                             1 	(obj:15)
t_x_964                                             1 	(obj:12)
t_x_969                                             1 	(obj:3)
t_x_976                                             1 	(obj:28)
t_x_978                                             1 	(obj:46)
t_x_979                                             1 	(obj:3)
t_x_983                                             1 	(obj:9)
t_x_984                                             1 	(obj:35)
t_x_989                                             1 	(obj:35)
t_x_990                                             1 	(obj:11)
t_x_993                                             1 	(obj:25)
t_x_1001                                            1 	(obj:1)
t_x_1004                                            1 	(obj:4)
t_x_1007                                            1 	(obj:25)
t_x_1009                                            1 	(obj:0)
t_x_1010                                            1 	(obj:8)
t_x_1013                                            1 	(obj:7)
t_x_1016                                            1 	(obj:2)
t_x_1017                                            1 	(obj:2)
t_x_1018                                            1 	(obj:19)
t_x_1032                                            1 	(obj:15)
t_x_1041                                            1 	(obj:10)
t_x_1044                                            1 	(obj:6)
t_x_1046                                            1 	(obj:3)
t_x_1054                                            1 	(obj:15)
t_x_1056                                            1 	(obj:7)
t_x_1063                                            1 	(obj:6)
t_x_1070                                            1 	(obj:13)
t_x_1073                                            1 	(obj:10)
t_x_1074                                            1 	(obj:28)
t_x_1080                                            1 	(obj:21)
t_x_1085                                            1 	(obj:22)
t_x_1086                                            1 	(obj:17)
t_x_1087                                            1 	(obj:22)
t_x_1088                                            1 	(obj:13)
t_x_1089                                            1 	(obj:10)
t_x_1090                                            1 	(obj:15)
t_x_1097                                            1 	(obj:1)
t_x_1098                                            1 	(obj:1)
t_x_1102                                            1 	(obj:20)
t_x_1106                                            1 	(obj:28)
t_x_1109                                            1 	(obj:7)
t_x_1110                                            1 	(obj:41)
t_x_1111                                            1 	(obj:18)
t_x_1115                                            1 	(obj:15)
t_x_1116                                            1 	(obj:14)
t_x_1118                                            1 	(obj:31)
t_x_1120                                            1 	(obj:45)
t_x_1121                                            1 	(obj:0)
t_x_1122                                            1 	(obj:0)
t_x_1129                                            1 	(obj:67)
t_x_1132                                            1 	(obj:3)
t_x_1135                                            1 	(obj:19)
t_x_1141                                            1 	(obj:23)
t_x_1145                                            1 	(obj:9)
t_x_1146                                            1 	(obj:24)
t_x_1147                                            1 	(obj:4)
t_x_1159                                            1 	(obj:18)
t_x_1163                                            1 	(obj:6)
t_x_1170                                            1 	(obj:27)
t_x_1171                                            1 	(obj:6)
t_x_1174                                            1 	(obj:6)
t_x_1178                                            1 	(obj:2)
t_x_1179                                            1 	(obj:6)
t_x_1182                                            1 	(obj:5)
t_x_1183                                            1 	(obj:9)
t_x_1185                                            1 	(obj:24)
t_x_1187                                            1 	(obj:7)
t_x_1188                                            1 	(obj:35)
t_x_1189                                            1 	(obj:8)
t_x_1191                                            1 	(obj:6)
t_x_1197                                            1 	(obj:8)
t_x_1198                                            1 	(obj:0)
t_x_1200                                            1 	(obj:31)
t_x_1203                                            1 	(obj:10)
t_x_1210                                            1 	(obj:28)
t_x_1211                                            1 	(obj:6)
t_x_1214                                            1 	(obj:39)
t_x_1216                                            1 	(obj:12)
t_x_1220                                            1 	(obj:10)
t_x_1230                                            1 	(obj:12)
t_x_1234                                            1 	(obj:9)
t_x_1242                                            1 	(obj:24)
t_x_1243                                            1 	(obj:2)
t_x_1258                                            1 	(obj:11)
t_x_1260                                            1 	(obj:0)
t_x_1262                                            1 	(obj:20)
t_x_1266                                            1 	(obj:0)
t_x_1267                                            1 	(obj:8)
t_x_1268                                            1 	(obj:25)
t_x_1271                                            1 	(obj:20)
t_x_1273                                            1 	(obj:6)
t_x_1278                                            1 	(obj:11)
t_x_1281                                            1 	(obj:15)
t_x_1282                                            1 	(obj:0)
t_x_1291                                            1 	(obj:26)
t_x_1298                                            1 	(obj:2)
t_x_1299                                            1 	(obj:24)
t_x_1300                                            1 	(obj:21)
t_x_1307                                            1 	(obj:26)
t_x_1317                                            1 	(obj:65)
t_x_1318                                            1 	(obj:34)
t_x_1320                                            1 	(obj:2)
t_x_1327                                            1 	(obj:54)
t_x_1332                                            1 	(obj:9)
t_x_1333                                            1 	(obj:38)
t_x_1334                                            1 	(obj:24)
t_x_1335                                            1 	(obj:0)
t_x_1336                                            1 	(obj:4)
t_x_1338                                            1 	(obj:3)
t_x_1339                                            1 	(obj:2)
t_x_1340                                            1 	(obj:12)
t_x_1350                                            1 	(obj:22)
t_x_1355                                            1 	(obj:36)
t_x_1356                                            1 	(obj:17)
t_x_1358                                            1 	(obj:17)
t_x_1359                                            1 	(obj:11)
t_x_1363                                            1 	(obj:5)
t_x_1364                                            1 	(obj:27)
t_x_1368                                            1 	(obj:7)
t_x_1370                                            1 	(obj:1)
t_x_1373                                            1 	(obj:11)
t_x_1382                                            1 	(obj:39)
t_x_1388                                            1 	(obj:4)
t_x_1389                                            1 	(obj:49)
t_x_1390                                            1 	(obj:16)
t_x_1392                                            1 	(obj:14)
t_x_1396                                            1 	(obj:19)
t_x_1407                                            1 	(obj:36)
t_x_1408                                            1 	(obj:5)
t_x_1411                                            1 	(obj:20)
t_x_1413                                            1 	(obj:25)
t_x_1416                                            1 	(obj:8)
t_x_1419                                            1 	(obj:5)
t_x_1421                                            1 	(obj:2)
t_x_1424                                            1 	(obj:13)
t_x_1427                                            1 	(obj:46)
t_x_1429                                            1 	(obj:11)
t_x_1436                                            1 	(obj:10)
t_x_1440                                            1 	(obj:12)
t_x_1441                                            1 	(obj:11)
t_x_1442                                            1 	(obj:8)
t_x_1445                                            1 	(obj:20)
t_x_1446                                            1 	(obj:8)
t_x_1452                                            1 	(obj:8)
t_x_1455                                            1 	(obj:5)
t_x_1460                                            1 	(obj:20)
t_x_1462                                            1 	(obj:0)
t_x_1468                                            1 	(obj:2)
t_x_1478                                            1 	(obj:17)
t_x_1486                                            1 	(obj:5)
t_x_1491                                            1 	(obj:29)
t_x_1497                                            1 	(obj:41)
t_x_1501                                            1 	(obj:20)
t_x_1502                                            1 	(obj:20)
t_x_1509                                            1 	(obj:22)
t_x_1514                                            1 	(obj:38)
t_x_1519                                            1 	(obj:20)
t_x_1523                                            1 	(obj:10)
t_x_1527                                            1 	(obj:2)
t_x_1536                                            1 	(obj:55)
t_x_1542                                            1 	(obj:34)
t_x_1544                                            1 	(obj:39)
t_x_1551                                            1 	(obj:20)
t_x_1552                                            1 	(obj:35)
t_x_1553                                            1 	(obj:3)
t_x_1554                                            1 	(obj:17)
t_x_1557                                            1 	(obj:4)
t_x_1558                                            1 	(obj:4)
t_x_1562                                            1 	(obj:12)
t_x_1563                                            1 	(obj:2)
t_x_1564                                            1 	(obj:28)
t_x_1569                                            1 	(obj:11)
t_x_1571                                            1 	(obj:25)
t_x_1572                                            1 	(obj:8)
t_x_1573                                            1 	(obj:49)
t_x_1576                                            1 	(obj:16)
t_x_1581                                            1 	(obj:6)
t_x_1582                                            1 	(obj:14)
t_x_1584                                            1 	(obj:55)
t_x_1586                                            1 	(obj:3)
t_x_1587                                            1 	(obj:4)
t_x_1588                                            1 	(obj:7)
t_x_1591                                            1 	(obj:0)
t_x_1594                                            1 	(obj:16)
t_x_1596                                            1 	(obj:5)
t_x_1597                                            1 	(obj:30)
t_x_1598                                            1 	(obj:9)
t_x_1601                                            1 	(obj:6)
t_x_1608                                            1 	(obj:16)
t_x_1609                                            1 	(obj:33)
t_x_1612                                            1 	(obj:64)
t_x_1618                                            1 	(obj:55)
t_x_1619                                            1 	(obj:19)
t_x_1621                                            1 	(obj:34)
t_x_1625                                            1 	(obj:25)
t_x_1626                                            1 	(obj:7)
t_x_1630                                            1 	(obj:14)
t_x_1636                                            1 	(obj:8)
t_x_1642                                            1 	(obj:48)
t_x_1648                                            1 	(obj:30)
t_x_1650                                            1 	(obj:12)
t_x_1651                                            1 	(obj:60)
t_x_1655                                            1 	(obj:20)
t_x_1656                                            1 	(obj:2)
t_x_1657                                            1 	(obj:3)
t_x_1658                                            1 	(obj:10)
t_x_1659                                            1 	(obj:7)
t_x_1665                                            1 	(obj:5)
t_x_1672                                            1 	(obj:54)
t_x_1673                                            1 	(obj:8)
t_x_1678                                            1 	(obj:22)
t_x_1680                                            1 	(obj:31)
t_x_1682                                            1 	(obj:1)
t_x_1686                                            1 	(obj:6)
t_x_1690                                            1 	(obj:23)
t_x_1695                                            1 	(obj:8)
t_x_1704                                            1 	(obj:2)
t_x_1706                                            1 	(obj:28)
t_x_1710                                            1 	(obj:2)
t_x_1713                                            1 	(obj:33)
t_x_1717                                            1 	(obj:11)
t_x_1719                                            1 	(obj:26)
t_x_1735                                            1 	(obj:25)
t_x_1739                                            1 	(obj:9)
t_x_1742                                            1 	(obj:2)
t_x_1748                                            1 	(obj:15)
t_x_1752                                            1 	(obj:17)
t_x_1764                                            1 	(obj:38)
t_x_1765                                            1 	(obj:9)
t_x_1766                                            1 	(obj:33)
t_x_1769                                            1 	(obj:7)
t_x_1771                                            1 	(obj:27)
t_x_1773                                            1 	(obj:5)
t_x_1780                                            1 	(obj:18)
t_x_1782                                            1 	(obj:23)
t_x_1786                                            1 	(obj:15)
t_x_1791                                            1 	(obj:0)
t_x_1792                                            1 	(obj:0)
t_x_1798                                            1 	(obj:18)
t_x_1799                                            1 	(obj:5)
t_x_1800                                            1 	(obj:14)
t_x_1803                                            1 	(obj:16)
t_x_1807                                            1 	(obj:30)
t_x_1809                                            1 	(obj:0)
t_x_1812                                            1 	(obj:29)
t_x_1817                                            1 	(obj:18)
t_x_1818                                            1 	(obj:13)
t_x_1819                                            1 	(obj:16)
t_x_1820                                            1 	(obj:24)
t_x_1823                                            1 	(obj:7)
t_x_1828                                            1 	(obj:10)
t_x_1829                                            1 	(obj:42)
t_x_1830                                            1 	(obj:35)
t_x_1831                                            1 	(obj:0)
t_x_1833                                            1 	(obj:17)
t_x_1834                                            1 	(obj:46)
t_x_1837                                            1 	(obj:27)
t_x_1845                                            1 	(obj:0)
t_x_1849                                            1 	(obj:9)
t_x_1851                                            1 	(obj:7)
t_x_1854                                            1 	(obj:34)
t_x_1859                                            1 	(obj:7)
t_x_1863                                            1 	(obj:6)
t_x_1866                                            1 	(obj:0)
t_x_1873                                            1 	(obj:23)
t_x_1874                                            1 	(obj:16)
t_x_1875                                            1 	(obj:6)
t_x_1878                                            1 	(obj:37)
t_x_1879                                            1 	(obj:22)
t_x_1883                                            1 	(obj:18)
t_x_1884                                            1 	(obj:5)
t_x_1888                                            1 	(obj:7)
t_x_1894                                            1 	(obj:38)
t_x_1896                                            1 	(obj:20)
t_x_1897                                            1 	(obj:15)
t_x_1904                                            1 	(obj:7)
t_x_1911                                            1 	(obj:14)
t_x_1912                                            1 	(obj:27)
t_x_1914                                            1 	(obj:58)
t_x_1915                                            1 	(obj:2)
t_x_1919                                            1 	(obj:5)
t_x_1922                                            1 	(obj:5)
t_x_1931                                            1 	(obj:21)
t_x_1936                                            1 	(obj:49)
t_x_1937                                            1 	(obj:31)
t_x_1946                                            1 	(obj:4)
t_x_1956                                            1 	(obj:43)
t_x_1957                                            1 	(obj:36)
t_x_1958                                            1 	(obj:0)
t_x_1961                                            1 	(obj:16)
t_x_1967                                            1 	(obj:33)
t_x_1970                                            1 	(obj:12)
t_x_1971                                            1 	(obj:22)
t_x_1974                                            1 	(obj:9)
t_x_1975                                            1 	(obj:16)
t_x_1978                                            1 	(obj:59)
t_x_1980                                            1 	(obj:15)
t_x_1981                                            1 	(obj:24)
t_x_1982                                            1 	(obj:20)
t_x_1983                                            1 	(obj:10)
t_x_1988                                            1 	(obj:24)
t_x_1993                                            1 	(obj:36)
t_x_1996                                            1 	(obj:0)
